
Gurobi 11.0.0 (linux64) logging started Mon Sep 29 16:09:54 2025

Set parameter LogFile to value "/home/fm2288/StochasticPackageQuery/mylogSeq.log"

Gurobi 11.0.0 (linux64) logging started Mon Sep 29 16:09:55 2025

Set parameter LogFile to value "/home/fm2288/StochasticPackageQuery/mylogSeq.log"

Gurobi 11.0.0 (linux64) logging started Mon Sep 29 16:09:55 2025

Set parameter LogFile to value "/home/fm2288/StochasticPackageQuery/mylogSeq.log"

Gurobi 11.0.0 (linux64) logging started Mon Sep 29 16:09:56 2025

Set parameter LogFile to value "/home/fm2288/StochasticPackageQuery/mylogSeq.log"

Gurobi 11.0.0 (linux64) logging started Mon Sep 29 16:09:56 2025

Set parameter LogFile to value "/home/fm2288/StochasticPackageQuery/mylogSeq.log"

Gurobi 11.0.0 (linux64) logging started Mon Sep 29 16:09:57 2025

Set parameter LogFile to value "/home/fm2288/StochasticPackageQuery/mylogSeq.log"

Gurobi 11.0.0 (linux64) logging started Mon Sep 29 16:09:57 2025

Set parameter LogFile to value "/home/fm2288/StochasticPackageQuery/mylogSeq.log"

Gurobi 11.0.0 (linux64) logging started Mon Sep 29 16:09:57 2025

Set parameter LogFile to value "/home/fm2288/StochasticPackageQuery/mylogSeq.log"

Gurobi 11.0.0 (linux64) logging started Mon Sep 29 16:09:58 2025

Set parameter LogFile to value "/home/fm2288/StochasticPackageQuery/mylogSeq.log"

Gurobi 11.0.0 (linux64) logging started Mon Sep 29 16:09:58 2025

Set parameter LogFile to value "/home/fm2288/StochasticPackageQuery/mylogSeq.log"

Gurobi 11.0.0 (linux64) logging started Mon Sep 29 16:09:59 2025

Set parameter LogFile to value "/home/fm2288/StochasticPackageQuery/mylogSeq.log"

Gurobi 11.0.0 (linux64) logging started Mon Sep 29 16:09:59 2025

Set parameter LogFile to value "/home/fm2288/StochasticPackageQuery/mylogSeq.log"

Gurobi 11.0.0 (linux64) logging started Mon Sep 29 16:09:59 2025

Set parameter LogFile to value "/home/fm2288/StochasticPackageQuery/mylogSeq.log"

Gurobi 11.0.0 (linux64) logging started Mon Sep 29 16:10:00 2025

Set parameter LogFile to value "/home/fm2288/StochasticPackageQuery/mylogSeq.log"

Gurobi 11.0.0 (linux64) logging started Mon Sep 29 16:10:00 2025

Set parameter LogFile to value "/home/fm2288/StochasticPackageQuery/mylogSeq.log"

Gurobi 11.0.0 (linux64) logging started Mon Sep 29 16:10:01 2025

Set parameter LogFile to value "/home/fm2288/StochasticPackageQuery/mylogSeq.log"

Gurobi 11.0.0 (linux64) logging started Mon Sep 29 16:10:01 2025

Set parameter LogFile to value "/home/fm2288/StochasticPackageQuery/mylogSeq.log"

Gurobi 11.0.0 (linux64) logging started Mon Sep 29 16:10:02 2025

Set parameter LogFile to value "/home/fm2288/StochasticPackageQuery/mylogSeq.log"

Gurobi 11.0.0 (linux64) logging started Mon Sep 29 16:10:02 2025

Set parameter LogFile to value "/home/fm2288/StochasticPackageQuery/mylogSeq.log"

Gurobi 11.0.0 (linux64) logging started Mon Sep 29 16:11:09 2025

Set parameter LogFile to value "/home/fm2288/StochasticPackageQuery/mylogSeq.log"

Gurobi 11.0.0 (linux64) logging started Mon Sep 29 16:14:25 2025

Set parameter LogFile to value "/home/fm2288/StochasticPackageQuery/mylogSeq.log"

Gurobi 11.0.0 (linux64) logging started Mon Sep 29 16:14:25 2025

Set parameter LogFile to value "/home/fm2288/StochasticPackageQuery/mylogSeq.log"

Gurobi 11.0.0 (linux64) logging started Mon Sep 29 16:14:26 2025

Set parameter LogFile to value "/home/fm2288/StochasticPackageQuery/mylogSeq.log"

Gurobi 11.0.0 (linux64) logging started Mon Sep 29 16:14:26 2025

Set parameter LogFile to value "/home/fm2288/StochasticPackageQuery/mylogSeq.log"

Gurobi 11.0.0 (linux64) logging started Mon Sep 29 16:14:27 2025

Set parameter LogFile to value "/home/fm2288/StochasticPackageQuery/mylogSeq.log"

Gurobi 11.0.0 (linux64) logging started Mon Sep 29 16:14:27 2025

Set parameter LogFile to value "/home/fm2288/StochasticPackageQuery/mylogSeq.log"

Gurobi 11.0.0 (linux64) logging started Mon Sep 29 16:14:27 2025

Set parameter LogFile to value "/home/fm2288/StochasticPackageQuery/mylogSeq.log"

Gurobi 11.0.0 (linux64) logging started Mon Sep 29 16:14:28 2025

Set parameter LogFile to value "/home/fm2288/StochasticPackageQuery/mylogSeq.log"

Gurobi 11.0.0 (linux64) logging started Mon Sep 29 16:14:28 2025

Set parameter LogFile to value "/home/fm2288/StochasticPackageQuery/mylogSeq.log"

Gurobi 11.0.0 (linux64) logging started Mon Sep 29 16:14:29 2025

Set parameter LogFile to value "/home/fm2288/StochasticPackageQuery/mylogSeq.log"

Gurobi 11.0.0 (linux64) logging started Mon Sep 29 16:14:29 2025

Set parameter LogFile to value "/home/fm2288/StochasticPackageQuery/mylogSeq.log"

Gurobi 11.0.0 (linux64) logging started Mon Sep 29 16:14:29 2025

Set parameter LogFile to value "/home/fm2288/StochasticPackageQuery/mylogSeq.log"

Gurobi 11.0.0 (linux64) logging started Mon Sep 29 16:14:30 2025

Set parameter LogFile to value "/home/fm2288/StochasticPackageQuery/mylogSeq.log"

Gurobi 11.0.0 (linux64) logging started Mon Sep 29 16:14:30 2025

Set parameter LogFile to value "/home/fm2288/StochasticPackageQuery/mylogSeq.log"

Gurobi 11.0.0 (linux64) logging started Mon Sep 29 16:14:31 2025

Set parameter LogFile to value "/home/fm2288/StochasticPackageQuery/mylogSeq.log"

Gurobi 11.0.0 (linux64) logging started Mon Sep 29 16:14:31 2025

Set parameter LogFile to value "/home/fm2288/StochasticPackageQuery/mylogSeq.log"

Gurobi 11.0.0 (linux64) logging started Mon Sep 29 16:14:31 2025

Set parameter LogFile to value "/home/fm2288/StochasticPackageQuery/mylogSeq.log"

Gurobi 11.0.0 (linux64) logging started Mon Sep 29 16:14:32 2025

Set parameter LogFile to value "/home/fm2288/StochasticPackageQuery/mylogSeq.log"

Gurobi 11.0.0 (linux64) logging started Mon Sep 29 16:14:32 2025

Set parameter LogFile to value "/home/fm2288/StochasticPackageQuery/mylogSeq.log"

Gurobi 11.0.0 (linux64) logging started Mon Sep 29 16:15:36 2025

Set parameter LogFile to value "/home/fm2288/StochasticPackageQuery/mylogSeq.log"

Gurobi 11.0.0 (linux64) logging started Mon Sep 29 16:17:53 2025

Set parameter LogFile to value "/home/fm2288/StochasticPackageQuery/mylogSeq.log"

Gurobi 11.0.0 (linux64) logging started Mon Sep 29 16:17:53 2025

Set parameter LogFile to value "/home/fm2288/StochasticPackageQuery/mylogSeq.log"

Gurobi 11.0.0 (linux64) logging started Mon Sep 29 16:17:54 2025

Set parameter LogFile to value "/home/fm2288/StochasticPackageQuery/mylogSeq.log"

Gurobi 11.0.0 (linux64) logging started Mon Sep 29 16:17:55 2025

Set parameter LogFile to value "/home/fm2288/StochasticPackageQuery/mylogSeq.log"

Gurobi 11.0.0 (linux64) logging started Mon Sep 29 16:17:55 2025

Set parameter LogFile to value "/home/fm2288/StochasticPackageQuery/mylogSeq.log"

Gurobi 11.0.0 (linux64) logging started Mon Sep 29 16:17:55 2025

Set parameter LogFile to value "/home/fm2288/StochasticPackageQuery/mylogSeq.log"

Gurobi 11.0.0 (linux64) logging started Mon Sep 29 16:17:56 2025

Set parameter LogFile to value "/home/fm2288/StochasticPackageQuery/mylogSeq.log"

Gurobi 11.0.0 (linux64) logging started Mon Sep 29 16:17:56 2025

Set parameter LogFile to value "/home/fm2288/StochasticPackageQuery/mylogSeq.log"

Gurobi 11.0.0 (linux64) logging started Mon Sep 29 16:17:57 2025

Set parameter LogFile to value "/home/fm2288/StochasticPackageQuery/mylogSeq.log"

Gurobi 11.0.0 (linux64) logging started Mon Sep 29 16:17:57 2025

Set parameter LogFile to value "/home/fm2288/StochasticPackageQuery/mylogSeq.log"

Gurobi 11.0.0 (linux64) logging started Mon Sep 29 16:17:58 2025

Set parameter LogFile to value "/home/fm2288/StochasticPackageQuery/mylogSeq.log"

Gurobi 11.0.0 (linux64) logging started Mon Sep 29 16:17:58 2025

Set parameter LogFile to value "/home/fm2288/StochasticPackageQuery/mylogSeq.log"

Gurobi 11.0.0 (linux64) logging started Mon Sep 29 16:17:58 2025

Set parameter LogFile to value "/home/fm2288/StochasticPackageQuery/mylogSeq.log"

Gurobi 11.0.0 (linux64) logging started Mon Sep 29 16:17:59 2025

Set parameter LogFile to value "/home/fm2288/StochasticPackageQuery/mylogSeq.log"

Gurobi 11.0.0 (linux64) logging started Mon Sep 29 16:17:59 2025

Set parameter LogFile to value "/home/fm2288/StochasticPackageQuery/mylogSeq.log"

Gurobi 11.0.0 (linux64) logging started Mon Sep 29 16:18:00 2025

Set parameter LogFile to value "/home/fm2288/StochasticPackageQuery/mylogSeq.log"

Gurobi 11.0.0 (linux64) logging started Mon Sep 29 16:18:00 2025

Set parameter LogFile to value "/home/fm2288/StochasticPackageQuery/mylogSeq.log"

Gurobi 11.0.0 (linux64) logging started Mon Sep 29 16:18:01 2025

Set parameter LogFile to value "/home/fm2288/StochasticPackageQuery/mylogSeq.log"

Gurobi 11.0.0 (linux64) logging started Mon Sep 29 16:18:01 2025

Set parameter LogFile to value "/home/fm2288/StochasticPackageQuery/mylogSeq.log"

Gurobi 11.0.0 (linux64) logging started Mon Sep 29 16:19:29 2025

Set parameter LogFile to value "/home/fm2288/StochasticPackageQuery/mylogSeq.log"

Gurobi 11.0.0 (linux64) logging started Mon Sep 29 16:19:29 2025

Set parameter LogFile to value "/home/fm2288/StochasticPackageQuery/mylogSeq.log"

Gurobi 11.0.0 (linux64) logging started Mon Sep 29 16:19:29 2025

Set parameter LogFile to value "/home/fm2288/StochasticPackageQuery/mylogSeq.log"

Gurobi 11.0.0 (linux64) logging started Mon Sep 29 16:19:30 2025

Set parameter LogFile to value "/home/fm2288/StochasticPackageQuery/mylogSeq.log"

Gurobi 11.0.0 (linux64) logging started Mon Sep 29 16:19:30 2025

Set parameter LogFile to value "/home/fm2288/StochasticPackageQuery/mylogSeq.log"

Gurobi 11.0.0 (linux64) logging started Mon Sep 29 16:19:30 2025

Set parameter LogFile to value "/home/fm2288/StochasticPackageQuery/mylogSeq.log"

Gurobi 11.0.0 (linux64) logging started Mon Sep 29 16:19:31 2025

Set parameter LogFile to value "/home/fm2288/StochasticPackageQuery/mylogSeq.log"

Gurobi 11.0.0 (linux64) logging started Mon Sep 29 16:19:31 2025

Set parameter LogFile to value "/home/fm2288/StochasticPackageQuery/mylogSeq.log"

Gurobi 11.0.0 (linux64) logging started Mon Sep 29 16:19:32 2025

Set parameter LogFile to value "/home/fm2288/StochasticPackageQuery/mylogSeq.log"

Gurobi 11.0.0 (linux64) logging started Mon Sep 29 16:19:32 2025

Set parameter LogFile to value "/home/fm2288/StochasticPackageQuery/mylogSeq.log"

Gurobi 11.0.0 (linux64) logging started Mon Sep 29 16:19:33 2025

Set parameter LogFile to value "/home/fm2288/StochasticPackageQuery/mylogSeq.log"

Gurobi 11.0.0 (linux64) logging started Mon Sep 29 16:19:33 2025

Set parameter LogFile to value "/home/fm2288/StochasticPackageQuery/mylogSeq.log"

Gurobi 11.0.0 (linux64) logging started Mon Sep 29 16:19:33 2025

Set parameter LogFile to value "/home/fm2288/StochasticPackageQuery/mylogSeq.log"

Gurobi 11.0.0 (linux64) logging started Mon Sep 29 16:19:34 2025

Set parameter LogFile to value "/home/fm2288/StochasticPackageQuery/mylogSeq.log"

Gurobi 11.0.0 (linux64) logging started Mon Sep 29 16:19:34 2025

Set parameter LogFile to value "/home/fm2288/StochasticPackageQuery/mylogSeq.log"

Gurobi 11.0.0 (linux64) logging started Mon Sep 29 16:19:34 2025

Set parameter LogFile to value "/home/fm2288/StochasticPackageQuery/mylogSeq.log"

Gurobi 11.0.0 (linux64) logging started Mon Sep 29 16:19:35 2025

Set parameter LogFile to value "/home/fm2288/StochasticPackageQuery/mylogSeq.log"

Gurobi 11.0.0 (linux64) logging started Mon Sep 29 16:19:35 2025

Set parameter LogFile to value "/home/fm2288/StochasticPackageQuery/mylogSeq.log"

Gurobi 11.0.0 (linux64) logging started Mon Sep 29 16:19:35 2025

Set parameter LogFile to value "/home/fm2288/StochasticPackageQuery/mylogSeq.log"

Gurobi 11.0.0 (linux64) logging started Mon Sep 29 16:21:05 2025

Set parameter LogFile to value "/home/fm2288/StochasticPackageQuery/mylogSeq.log"
